
  12    4
  10   10   10   10

   0   0   0   0   0   1 2 
   8  10  10  10  10   4 7 5 4 3 
   1  10  10  10  10   4 11 10 8 6 
   7  10  10  10  10   4 11 10 9 8 
   1  10  10  10  10   2 9 8 
   7  10  10  10  10   1 9 
   6  10  10  10  10   1 8 
   7  10  10  10  10   1 12
   8  10  10  10  10   1 12
   3  10  10  10  10   1 12
   3  10  10  10  10   1 12
   0   0   0   0   0   0 
